sat
(:max-memory          18.41
 :memory              17.66
 :num-allocs          108487784
 :rlimit-count        458389
 :sls-constraints     2526
 :sls-ddfw-flips      5180027.00
 :sls-ddfw-reinits    32
 :sls-ddfw-restarts   217
 :sls-ddfw-shifts     2392750.00
 :sls.euf-conflict    2526
 :solve-eqs-elim-vars 5
 :solve-eqs-steps     12
 :time                4.57
 :total-time          4.57)
